p cnf 126 330
1 2 3 0
-28 0
-1 29 0
-2 29 0
-1 -2 30 0
-3 31 0
-28 31 0
-3 -28 32 0
-29 33 0
-31 33 0
-29 -31 34 0
-30 35 0
-32 35 0
-30 -32 36 0
-34 37 0
-35 37 0
-34 -35 38 0
-37 0
10 11 12 0
-39 0
-10 40 0
-11 40 0
-10 -11 41 0
-12 42 0
-39 42 0
-12 -39 43 0
-40 44 0
-42 44 0
-40 -42 45 0
-41 46 0
-43 46 0
-41 -43 47 0
-45 48 0
-46 48 0
-45 -46 49 0
-48 0
19 20 21 0
-50 0
-19 51 0
-20 51 0
-19 -20 52 0
-21 53 0
-50 53 0
-21 -50 54 0
-51 55 0
-53 55 0
-51 -53 56 0
-52 57 0
-54 57 0
-52 -54 58 0
-56 59 0
-57 59 0
-56 -57 60 0
-59 0
4 5 6 0
-61 0
-4 62 0
-5 62 0
-4 -5 63 0
-6 64 0
-61 64 0
-6 -61 65 0
-62 66 0
-64 66 0
-62 -64 67 0
-63 68 0
-65 68 0
-63 -65 69 0
-67 70 0
-68 70 0
-67 -68 71 0
-70 0
13 14 15 0
-72 0
-13 73 0
-14 73 0
-13 -14 74 0
-15 75 0
-72 75 0
-15 -72 76 0
-73 77 0
-75 77 0
-73 -75 78 0
-74 79 0
-76 79 0
-74 -76 80 0
-78 81 0
-79 81 0
-78 -79 82 0
-81 0
22 23 24 0
-83 0
-22 84 0
-23 84 0
-22 -23 85 0
-24 86 0
-83 86 0
-24 -83 87 0
-84 88 0
-86 88 0
-84 -86 89 0
-85 90 0
-87 90 0
-85 -87 91 0
-89 92 0
-90 92 0
-89 -90 93 0
-92 0
7 8 9 0
-94 0
-7 95 0
-8 95 0
-7 -8 96 0
-9 97 0
-94 97 0
-9 -94 98 0
-95 99 0
-97 99 0
-95 -97 100 0
-96 101 0
-98 101 0
-96 -98 102 0
-100 103 0
-101 103 0
-100 -101 104 0
-103 0
16 17 18 0
-105 0
-16 106 0
-17 106 0
-16 -17 107 0
-18 108 0
-105 108 0
-18 -105 109 0
-106 110 0
-108 110 0
-106 -108 111 0
-107 112 0
-109 112 0
-107 -109 113 0
-111 114 0
-112 114 0
-111 -112 115 0
-114 0
25 26 27 0
-116 0
-25 117 0
-26 117 0
-25 -26 118 0
-27 119 0
-116 119 0
-27 -116 120 0
-117 121 0
-119 121 0
-117 -119 122 0
-118 123 0
-120 123 0
-118 -120 124 0
-122 125 0
-123 125 0
-122 -123 126 0
-125 0
-1 -10 -19 5 0
-1 -11 -19 5 0
-1 -12 -19 5 0
-1 -10 -20 5 0
-1 -11 -20 5 0
-1 -12 -20 5 0
-1 -10 -21 5 0
-1 -11 -21 5 0
-1 -12 -21 5 0
-2 -10 -19 5 0
-2 -11 -19 5 0
-2 -12 -19 5 0
-2 -10 -20 5 0
-2 -11 -20 6 0
-2 -12 -20 6 0
-2 -10 -21 5 0
-2 -11 -21 6 0
-2 -12 -21 6 0
-3 -10 -19 5 0
-3 -11 -19 5 0
-3 -12 -19 5 0
-3 -10 -20 5 0
-3 -11 -20 6 0
-3 -12 -20 6 0
-3 -10 -21 5 0
-3 -11 -21 6 0
-3 -12 -21 4 0
-10 -1 -19 14 0
-10 -2 -19 14 0
-10 -3 -19 14 0
-10 -1 -20 14 0
-10 -2 -20 14 0
-10 -3 -20 14 0
-10 -1 -21 14 0
-10 -2 -21 14 0
-10 -3 -21 14 0
-11 -1 -19 14 0
-11 -2 -19 14 0
-11 -3 -19 14 0
-11 -1 -20 14 0
-11 -2 -20 15 0
-11 -3 -20 15 0
-11 -1 -21 14 0
-11 -2 -21 15 0
-11 -3 -21 15 0
-12 -1 -19 14 0
-12 -2 -19 14 0
-12 -3 -19 14 0
-12 -1 -20 14 0
-12 -2 -20 15 0
-12 -3 -20 15 0
-12 -1 -21 14 0
-12 -2 -21 15 0
-12 -3 -21 13 0
-19 -1 -10 23 0
-19 -2 -10 23 0
-19 -3 -10 23 0
-19 -1 -11 23 0
-19 -2 -11 23 0
-19 -3 -11 23 0
-19 -1 -12 23 0
-19 -2 -12 23 0
-19 -3 -12 23 0
-20 -1 -10 23 0
-20 -2 -10 23 0
-20 -3 -10 23 0
-20 -1 -11 23 0
-20 -2 -11 24 0
-20 -3 -11 24 0
-20 -1 -12 23 0
-20 -2 -12 24 0
-20 -3 -12 24 0
-21 -1 -10 23 0
-21 -2 -10 23 0
-21 -3 -10 23 0
-21 -1 -11 23 0
-21 -2 -11 24 0
-21 -3 -11 24 0
-21 -1 -12 23 0
-21 -2 -12 24 0
-21 -3 -12 22 0
-4 -13 -22 8 0
-4 -14 -22 8 0
-4 -15 -22 8 0
-4 -13 -23 8 0
-4 -14 -23 8 0
-4 -15 -23 8 0
-4 -13 -24 8 0
-4 -14 -24 8 0
-4 -15 -24 8 0
-5 -13 -22 8 0
-5 -14 -22 8 0
-5 -15 -22 8 0
-5 -13 -23 8 0
-5 -14 -23 9 0
-5 -15 -23 9 0
-5 -13 -24 8 0
-5 -14 -24 9 0
-5 -15 -24 9 0
-6 -13 -22 8 0
-6 -14 -22 8 0
-6 -15 -22 8 0
-6 -13 -23 8 0
-6 -14 -23 9 0
-6 -15 -23 9 0
-6 -13 -24 8 0
-6 -14 -24 9 0
-6 -15 -24 7 0
-13 -4 -22 17 0
-13 -5 -22 17 0
-13 -6 -22 17 0
-13 -4 -23 17 0
-13 -5 -23 17 0
-13 -6 -23 17 0
-13 -4 -24 17 0
-13 -5 -24 17 0
-13 -6 -24 17 0
-14 -4 -22 17 0
-14 -5 -22 17 0
-14 -6 -22 17 0
-14 -4 -23 17 0
-14 -5 -23 18 0
-14 -6 -23 18 0
-14 -4 -24 17 0
-14 -5 -24 18 0
-14 -6 -24 18 0
-15 -4 -22 17 0
-15 -5 -22 17 0
-15 -6 -22 17 0
-15 -4 -23 17 0
-15 -5 -23 18 0
-15 -6 -23 18 0
-15 -4 -24 17 0
-15 -5 -24 18 0
-15 -6 -24 16 0
-22 -4 -13 26 0
-22 -5 -13 26 0
-22 -6 -13 26 0
-22 -4 -14 26 0
-22 -5 -14 26 0
-22 -6 -14 26 0
-22 -4 -15 26 0
-22 -5 -15 26 0
-22 -6 -15 26 0
-23 -4 -13 26 0
-23 -5 -13 26 0
-23 -6 -13 26 0
-23 -4 -14 26 0
-23 -5 -14 27 0
-23 -6 -14 27 0
-23 -4 -15 26 0
-23 -5 -15 27 0
-23 -6 -15 27 0
-24 -4 -13 26 0
-24 -5 -13 26 0
-24 -6 -13 26 0
-24 -4 -14 26 0
-24 -5 -14 27 0
-24 -6 -14 27 0
-24 -4 -15 26 0
-24 -5 -15 27 0
-24 -6 -15 25 0
-7 -16 -25 0
-8 -17 -26 0
-9 -18 -27 0
-1 -10 -19 0
-2 -11 -20 0
-3 -12 -21 0
